(set-logic QF_LIA)
(declare-fun x0 () Int)
(declare-fun x1 () Int)
(declare-fun x2 () Int)
(declare-fun x3 () Int)
(declare-fun x4 () Int)
(declare-fun x5 () Int)
(declare-fun x6 () Int)
(declare-fun x7 () Int)
(declare-fun x8 () Int)
(declare-fun x9 () Int)
(declare-fun A0 () Bool)
(declare-fun A1 () Bool)
(declare-fun A2 () Bool)
(declare-fun A3 () Bool)
(declare-fun A4 () Bool)
(declare-fun A5 () Bool)
(declare-fun A6 () Bool)
(declare-fun A8 () Bool)
(declare-fun A9 () Bool)
(assert (let ((.def_0 (and A1 A6))) (let ((.def_1 (not .def_0))) (let ((.def_2 (* (- 1) x4))) (let ((.def_3 (< .def_2 1))) (let ((.def_4 (not .def_3))) (let ((.def_5 (= A3 .def_4))) (let ((.def_6 (not .def_5))) (let ((.def_7 (or .def_6 .def_1))) (let ((.def_8 (not A4))) (let ((.def_9 (or A9 .def_8))) (let ((.def_10 (not .def_9))) (let ((.def_11 (* (- 1) x5))) (let ((.def_12 (< .def_11 (- 1)))) (let ((.def_13 (not A3))) (let ((.def_14 (or .def_13 .def_12))) (let ((.def_15 (= .def_14 .def_10))) (let ((.def_16 (not .def_15))) (let ((.def_17 (and .def_16 .def_7))) (let ((.def_18 (* (- 1) x8))) (let ((.def_19 (* 1 x3))) (let ((.def_20 (+ .def_19 .def_18))) (let ((.def_21 (< .def_20 1))) (let ((.def_22 (not .def_21))) (let ((.def_23 (and .def_22 A2))) (let ((.def_24 (* 1 x8))) (let ((.def_25 (< .def_24 (- 1)))) (let ((.def_26 (not .def_25))) (let ((.def_27 (or .def_26 .def_3))) (let ((.def_28 (or .def_27 .def_23))) (let ((.def_29 (and A1 A2))) (let ((.def_30 (not .def_29))) (let ((.def_31 (* (- 1) x9))) (let ((.def_32 (* (- 1) x3))) (let ((.def_33 (+ .def_32 .def_31))) (let ((.def_34 (< .def_33 (- 1)))) (let ((.def_35 (not .def_34))) (let ((.def_36 (or .def_35 A1))) (let ((.def_37 (not .def_36))) (let ((.def_38 (and .def_37 .def_30))) (let ((.def_39 (and .def_38 .def_28))) (let ((.def_40 (and .def_39 .def_17))) (let ((.def_41 (not A0))) (let ((.def_42 (* 1 x9))) (let ((.def_43 (* 1 x6))) (let ((.def_44 (+ .def_43 .def_42))) (let ((.def_45 (< .def_44 (- 1)))) (let ((.def_46 (or .def_45 .def_41))) (let ((.def_47 (* 1 x4))) (let ((.def_48 (* (- 1) x6))) (let ((.def_49 (+ .def_48 .def_47))) (let ((.def_50 (< .def_49 1))) (let ((.def_51 (* 1 x0))) (let ((.def_52 (< .def_51 (- 1)))) (let ((.def_53 (not .def_52))) (let ((.def_54 (and .def_53 .def_50))) (let ((.def_55 (not .def_54))) (let ((.def_56 (and .def_55 .def_46))) (let ((.def_57 (not A9))) (let ((.def_58 (and .def_57 A1))) (let ((.def_59 (not A8))) (let ((.def_60 (or .def_59 A1))) (let ((.def_61 (not .def_60))) (let ((.def_62 (or .def_61 .def_58))) (let ((.def_63 (not .def_62))) (let ((.def_64 (and .def_63 .def_56))) (let ((.def_65 (not .def_64))) (let ((.def_66 (* 1 x1))) (let ((.def_67 (+ .def_66 .def_18))) (let ((.def_68 (< .def_67 (- 1)))) (let ((.def_69 (not .def_68))) (let ((.def_70 (or A5 .def_69))) (let ((.def_71 (< .def_19 (- 1)))) (let ((.def_72 (not A6))) (let ((.def_73 (or .def_72 .def_71))) (let ((.def_74 (not .def_73))) (let ((.def_75 (or .def_74 .def_70))) (let ((.def_76 (* (- 1) x2))) (let ((.def_77 (+ .def_76 .def_18))) (let ((.def_78 (< .def_77 (- 1)))) (let ((.def_79 (not A1))) (let ((.def_80 (= .def_79 .def_78))) (let ((.def_81 (not .def_80))) (let ((.def_82 (or .def_59 .def_72))) (let ((.def_83 (or .def_82 .def_81))) (let ((.def_84 (not .def_83))) (let ((.def_85 (or .def_84 .def_75))) (let ((.def_86 (or .def_85 .def_65))) (let ((.def_87 (and .def_86 .def_40))) (let ((.def_88 (<= x9 1))) (let ((.def_89 (<= 0 x9))) (let ((.def_90 (<= x8 1))) (let ((.def_91 (<= 0 x8))) (let ((.def_92 (<= x7 1))) (let ((.def_93 (<= 0 x7))) (let ((.def_94 (<= x6 1))) (let ((.def_95 (<= 0 x6))) (let ((.def_96 (<= x5 1))) (let ((.def_97 (<= 0 x5))) (let ((.def_98 (<= x4 1))) (let ((.def_99 (<= 0 x4))) (let ((.def_100 (<= x3 1))) (let ((.def_101 (<= 0 x3))) (let ((.def_102 (<= x2 1))) (let ((.def_103 (<= 0 x2))) (let ((.def_104 (<= x1 1))) (let ((.def_105 (<= 0 x1))) (let ((.def_106 (<= x0 1))) (let ((.def_107 (<= 0 x0))) (let ((.def_108 (and .def_107 .def_106 .def_105 .def_104 .def_103 .def_102 .def_101 .def_100 .def_99 .def_98 .def_97 .def_96 .def_95 .def_94 .def_93 .def_92 .def_91 .def_90 .def_89 .def_88 .def_87))) .def_108))))))))))))))))))))))))))))))))))))))))))))))))))))))))))))))))))))))))))))))))))))))))))))))))))))))))))))))
(check-sat)
